8
Lattice="4.254674979676682 3.976333466059558e-32 -2.2776297271752787e-34 6.733699692521985e-32 4.254674979676682 -1.8166574668075765e-20 4.222209021404925e-34 -1.8166574668082725e-20 4.254674979676682" Properties=species:S:1:pos:R:3 fc3_supercell="_JSON [[2, 0, 0], [0, 2, 0], [0, 0, 2]]" fc2_supercell="_JSON [[4, 0, 0], [0, 4, 0], [0, 0, 4]]" primitive_matrix="_JSON [[0.0, 0.5, 0.5], [0.5, 0.0, 0.5], [0.5, 0.5, 0.0]]" material_id=mp-1265 q_point_mesh="19 19 19" name=MgO symm.no=225 steps=25 e_fr_energy=-47.81989288330078 e_0_energy=-47.81989288330078 force_conv=T pbc="T T T"
Mg       0.00000000       0.00000000       0.00000000
Mg       0.00000000       2.12733749       2.12733749
Mg       2.12733749      -0.00000000       2.12733749
Mg       2.12733749       2.12733749      -0.00000000
O        2.12733749       2.12733749       2.12733749
O        2.12733749       0.00000000      -0.00000000
O        0.00000000       2.12733749      -0.00000000
O        0.00000000      -0.00000000       2.12733749
