8
Lattice="4.084487980489614 3.8172801274171746e-32 -2.1865245380882677e-34 -3.817280127417176e-32 4.084487980489614 -1.743991168135273e-20 2.1865245380882677e-34 1.743991168135273e-20 4.084487980489614" Properties=species:S:1:pos:R:3 fc3_supercell="_JSON [[2, 0, 0], [0, 2, 0], [0, 0, 2]]" fc2_supercell="_JSON [[4, 0, 0], [0, 4, 0], [0, 0, 4]]" primitive_matrix="_JSON [[0.0, 0.5, 0.5], [0.5, 0.0, 0.5], [0.5, 0.5, 0.0]]" material_id=mp-1265 q_point_mesh="19 19 19" name=MgO symm.no=225 steps=0 e_fr_energy=-47.25837707519531 e_0_energy=-47.25837707519531 force_conv=T pbc="T T T"
Mg       0.00000000       0.00000000       0.00000000
Mg      -0.00000000       2.04224399       2.04224399
Mg       2.04224399       0.00000000       2.04224399
Mg       2.04224399       2.04224399      -0.00000000
O        2.04224399       2.04224399       2.04224399
O        2.04224399       0.00000000      -0.00000000
O        0.00000000       2.04224399      -0.00000000
O        0.00000000       0.00000000       2.04224399
8
Lattice="4.169581480083148 3.896806796738367e-32 -2.232077132631773e-34 -3.8968067967383654e-32 4.169581480083148 -1.780324317471425e-20 2.232077132631773e-34 1.7803243174714243e-20 4.169581480083148" Properties=species:S:1:pos:R:3 fc3_supercell="_JSON [[2, 0, 0], [0, 2, 0], [0, 0, 2]]" fc2_supercell="_JSON [[4, 0, 0], [0, 4, 0], [0, 0, 4]]" primitive_matrix="_JSON [[0.0, 0.5, 0.5], [0.5, 0.0, 0.5], [0.5, 0.5, 0.0]]" material_id=mp-1265 q_point_mesh="19 19 19" name=MgO symm.no=225 steps=0 e_fr_energy=-47.698177337646484 e_0_energy=-47.698177337646484 force_conv=T pbc="T T T"
Mg       0.00000000       0.00000000       0.00000000
Mg      -0.00000000       2.08479074       2.08479074
Mg       2.08479074       0.00000000       2.08479074
Mg       2.08479074       2.08479074      -0.00000000
O        2.08479074       2.08479074       2.08479074
O        2.08479074       0.00000000      -0.00000000
O        0.00000000       2.08479074      -0.00000000
O        0.00000000       0.00000000       2.08479074
8
Lattice="4.254674979676682 3.9763334660595583e-32 -2.2776297271752783e-34 -3.976333466059559e-32 4.254674979676682 -1.8166574668075765e-20 2.2776297271752787e-34 1.8166574668075768e-20 4.254674979676682" Properties=species:S:1:pos:R:3 fc3_supercell="_JSON [[2, 0, 0], [0, 2, 0], [0, 0, 2]]" fc2_supercell="_JSON [[4, 0, 0], [0, 4, 0], [0, 0, 4]]" primitive_matrix="_JSON [[0.0, 0.5, 0.5], [0.5, 0.0, 0.5], [0.5, 0.5, 0.0]]" material_id=mp-1265 q_point_mesh="19 19 19" name=MgO symm.no=225 steps=0 e_fr_energy=-47.81989288330078 e_0_energy=-47.81989288330078 force_conv=T pbc="T T T"
Mg       0.00000000       0.00000000       0.00000000
Mg      -0.00000000       2.12733749       2.12733749
Mg       2.12733749       0.00000000       2.12733749
Mg       2.12733749       2.12733749      -0.00000000
O        2.12733749       2.12733749       2.12733749
O        2.12733749       0.00000000      -0.00000000
O        0.00000000       2.12733749      -0.00000000
O        0.00000000       0.00000000       2.12733749
8
Lattice="4.339768479270215 4.0558601353807497e-32 -2.323182321718784e-34 -4.055860135380749e-32 4.339768479270215 -1.852990616143728e-20 2.3231823217187836e-34 1.8529906161437286e-20 4.339768479270215" Properties=species:S:1:pos:R:3 fc3_supercell="_JSON [[2, 0, 0], [0, 2, 0], [0, 0, 2]]" fc2_supercell="_JSON [[4, 0, 0], [0, 4, 0], [0, 0, 4]]" primitive_matrix="_JSON [[0.0, 0.5, 0.5], [0.5, 0.0, 0.5], [0.5, 0.5, 0.0]]" material_id=mp-1265 q_point_mesh="19 19 19" name=MgO symm.no=225 steps=0 e_fr_energy=-47.70886993408203 e_0_energy=-47.70886993408203 force_conv=T pbc="T T T"
Mg       0.00000000       0.00000000       0.00000000
Mg      -0.00000000       2.16988424       2.16988424
Mg       2.16988424       0.00000000       2.16988424
Mg       2.16988424       2.16988424      -0.00000000
O        2.16988424       2.16988424       2.16988424
O        2.16988424       0.00000000      -0.00000000
O        0.00000000       2.16988424      -0.00000000
O        0.00000000       0.00000000       2.16988424
8
Lattice="4.424861978863749 4.135386804701941e-32 -2.3687349162622893e-34 -4.1353868047019404e-32 4.424861978863749 -1.8893237654798793e-20 2.3687349162622893e-34 1.8893237654798787e-20 4.424861978863749" Properties=species:S:1:pos:R:3 fc3_supercell="_JSON [[2, 0, 0], [0, 2, 0], [0, 0, 2]]" fc2_supercell="_JSON [[4, 0, 0], [0, 4, 0], [0, 0, 4]]" primitive_matrix="_JSON [[0.0, 0.5, 0.5], [0.5, 0.0, 0.5], [0.5, 0.5, 0.0]]" material_id=mp-1265 q_point_mesh="19 19 19" name=MgO symm.no=225 steps=0 e_fr_energy=-47.362361907958984 e_0_energy=-47.362361907958984 force_conv=T pbc="T T T"
Mg       0.00000000       0.00000000       0.00000000
Mg      -0.00000000       2.21243099       2.21243099
Mg       2.21243099       0.00000000       2.21243099
Mg       2.21243099       2.21243099      -0.00000000
O        2.21243099       2.21243099       2.21243099
O        2.21243099       0.00000000      -0.00000000
O        0.00000000       2.21243099      -0.00000000
O        0.00000000       0.00000000       2.21243099
8
Lattice="4.509955478457282 4.214913474023131e-32 -2.4142875108057954e-34 -4.214913474023132e-32 4.509955478457282 -1.9256569148160312e-20 2.4142875108057946e-34 1.9256569148160318e-20 4.509955478457282" Properties=species:S:1:pos:R:3 fc3_supercell="_JSON [[2, 0, 0], [0, 2, 0], [0, 0, 2]]" fc2_supercell="_JSON [[4, 0, 0], [0, 4, 0], [0, 0, 4]]" primitive_matrix="_JSON [[0.0, 0.5, 0.5], [0.5, 0.0, 0.5], [0.5, 0.5, 0.0]]" material_id=mp-1265 q_point_mesh="19 19 19" name=MgO symm.no=225 steps=0 e_fr_energy=-46.767478942871094 e_0_energy=-46.767478942871094 force_conv=T pbc="T T T"
Mg       0.00000000       0.00000000       0.00000000
Mg      -0.00000000       2.25497774       2.25497774
Mg       2.25497774       0.00000000       2.25497774
Mg       2.25497774       2.25497774      -0.00000000
O        2.25497774       2.25497774       2.25497774
O        2.25497774       0.00000000      -0.00000000
O        0.00000000       2.25497774      -0.00000000
O        0.00000000       0.00000000       2.25497774
8
Lattice="4.595048978050817 4.294440143344323e-32 -2.4598401053493007e-34 -4.294440143344323e-32 4.595048978050817 -1.961990064152183e-20 2.4598401053493003e-34 1.9619900641521834e-20 4.595048978050817" Properties=species:S:1:pos:R:3 fc3_supercell="_JSON [[2, 0, 0], [0, 2, 0], [0, 0, 2]]" fc2_supercell="_JSON [[4, 0, 0], [0, 4, 0], [0, 0, 4]]" primitive_matrix="_JSON [[0.0, 0.5, 0.5], [0.5, 0.0, 0.5], [0.5, 0.5, 0.0]]" material_id=mp-1265 q_point_mesh="19 19 19" name=MgO symm.no=225 steps=0 e_fr_energy=-46.0223503112793 e_0_energy=-46.0223503112793 force_conv=T pbc="T T T"
Mg       0.00000000       0.00000000       0.00000000
Mg      -0.00000000       2.29752449       2.29752449
Mg       2.29752449       0.00000000       2.29752449
Mg       2.29752449       2.29752449      -0.00000000
O        2.29752449       2.29752449       2.29752449
O        2.29752449       0.00000000      -0.00000000
O        0.00000000       2.29752449      -0.00000000
O        0.00000000       0.00000000       2.29752449
