8
Lattice="4.255656884758435 0.0 0.0 0.0 4.255656884758435 0.0 0.0 0.0 4.255656884758435" Properties=species:S:1:pos:R:3 fc3_supercell="_JSON [[2, 0, 0], [0, 2, 0], [0, 0, 2]]" fc2_supercell="_JSON [[4, 0, 0], [0, 4, 0], [0, 0, 4]]" primitive_matrix="_JSON [[0.0, 0.5, 0.5], [0.5, 0.0, 0.5], [0.5, 0.5, 0.0]]" material_id=mp-1265 q_point_mesh="19 19 19" name=MgO symm.no=225 pbc="T T T"
Mg       0.00000000       0.00000000       0.00000000
Mg       0.00000000       2.12782844       2.12782844
Mg       2.12782844       0.00000000       2.12782844
Mg       2.12782844       2.12782844       0.00000000
O        2.12782844       2.12782844       2.12782844
O        2.12782844       0.00000000       0.00000000
O        0.00000000       2.12782844       0.00000000
O        0.00000000       0.00000000       2.12782844
